(declare-fun e () String)
(declare-fun c () String)
(declare-fun g () String)
(declare-fun b () String)
(declare-fun d () String)
(declare-fun f () String)
(declare-fun a () String)
(assert (= (str.++ c a g b) (str.++ "efb" c)))
(assert (= (str.++ "h" a) (str.++ g "g" d f f)))
(assert (= (str.++ "af" e) (str.++ e "e")))

(check-sat)
